NAME: u159
COMMENT: Quick (5min) local search tour for u159 (48416.41148608448)
TYPE: TOUR
DIMENSION: 159
TOUR_SECTION: 1 3 2 4 5 153 6 7 152 155 154 151 150 149 148 147 8 9 10 146 145 144 11 12 13 14 15 17 16 143 142 141 139 140 137 138 30 29 28 26 27 25 24 23 22 18 21 20 19 31 32 33 34 35 37 36 38 135 136 133 134 132 45 50 75 74 73 76 77 97 86 85 84 83 82 81 80 79 78 72 71 70 69 68 67 66 65 64 63 62 61 60 59 58 57 56 55 54 53 52 51 49 48 47 46 44 43 42 40 39 41 123 122 121 120 119 114 115 116 117 118 93 92 91 90 89 94 88 87 96 95 98 99 100 101 102 103 104 105 106 107 108 109 110 111 112 113 125 131 130 124 129 128 127 126 158 157 156 159 -1
EOF